30
1 0 20
5 0 13
5 2 3
8 3 4
8 4 7
9 8 19
10 4 14
10 7 15
11 2 15
11 4 1
12 0 11
12 10 2
15 1 5
15 5 3
15 7 6
15 9 10
16 3 16
16 4 8
16 6 12
17 2 3
17 8 7
19 8 17
19 18 1
20 5 8
20 6 9
20 17 19
21 13 16
23 3 1
24 9 10
24 18 15
24 20 13
25 20 5
25 22 3
26 13 5
26 25 13
27 4 2
27 5 8
27 8 16
27 22 5
28 4 10
28 11 15
28 20 15
29 0 13
29 2 5
